results/real/sos1/jan_43_300.in
Version identifier: 22.1.0.0 | 2022-03-09 | 1a383f8ce
CPXPARAM_Threads                                 1
CPXPARAM_MIP_Strategy_VariableSelect             3
CPXPARAM_TimeLimit                               599.99994834699999
1 of 1 MIP starts provided solutions.
MIP start 'm1' defined initial solution with objective 253.0000.
Tried aggregator 2 times.
MIP Presolve eliminated 342 rows and 1201 columns.
MIP Presolve added 36 rows and 9 columns.
MIP Presolve modified 41 coefficients.
Aggregator did 9 substitutions.
Reduced MIP has 1798 rows, 2700 columns, and 65081 nonzeros.
Reduced MIP has 2700 binaries, 0 generals, 0 SOSs, and 0 indicators.
Presolve time = 0.09 sec. (135.01 ticks)
Probing time = 0.01 sec. (11.54 ticks)
Tried aggregator 1 time.
Detecting symmetries...
MIP Presolve modified 9 coefficients.
Reduced MIP has 1798 rows, 2700 columns, and 65210 nonzeros.
Reduced MIP has 2700 binaries, 0 generals, 0 SOSs, and 0 indicators.
Presolve time = 0.06 sec. (98.63 ticks)
Probing time = 0.01 sec. (11.55 ticks)
Clique table members: 1196.
MIP emphasis: balance optimality and feasibility.
MIP search method: dynamic search.
Parallel mode: none, using 1 thread.
Root relaxation solution time = 0.02 sec. (20.99 ticks)

        Nodes                                         Cuts/
   Node  Left     Objective  IInf  Best Integer    Best Bound    ItCnt     Gap

*     0+    0                          253.0000    45150.0000              --- 
      0     0      300.0000    26      253.0000      300.0000      417   18.58%
*     0+    0                          300.0000      300.0000             0.00%
      0     0        cutoff            300.0000      300.0000      417    0.00%
Elapsed time = 0.27 sec. (347.48 ticks, tree = 0.01 MB, solutions = 2)

Root node processing (before b&c):
  Real time             =    0.27 sec. (347.63 ticks)
Sequential b&c:
  Real time             =    0.00 sec. (0.00 ticks)
                          ------------
Total (root+branch&cut) =    0.27 sec. (347.63 ticks)
Primal:	300
Dual:	300
Status:	Optimal
Time:	0.28
Sequence:
	4
	4
	1
	9
	9
	9
	4
	4
	10
	9
	0
	9
	10
	4
	8
	10
	4
	9
	5
	9
	4
	4
	9
	4
	4
	9
	4
	0
	4
	4
	10
	4
	9
	4
	1
	4
	9
	5
	9
	5
	0
	5
	9
	5
	9
	9
	9
	1
	9
	9
	9
	4
	4
	9
	4
	4
	0
	4
	4
	1
	4
	9
	4
	4
	1
	4
	9
	6
	4
	1
	9
	6
	0
	4
	4
	9
	4
	1
	0
	10
	4
	1
	4
	0
	10
	4
	0
	9
	4
	4
	0
	4
	10
	0
	4
	1
	4
	4
	0
	4
	10
	4
	4
	10
	4
	0
	4
	4
	0
	4
	10
	4
	4
	0
	9
	10
	9
	4
	4
	1
	4
	1
	4
	4
	9
	4
	4
	1
	4
	4
	1
	4
	4
	10
	9
	1
	4
	4
	1
	4
	4
	10
	4
	4
	1
	4
	4
	9
	4
	9
	4
	4
	9
	9
	9
	9
	9
	9
	4
	1
	9
	6
	9
	0
	9
	9
	9
	0
	9
	4
	1
	9
	0
	9
	9
	0
	9
	10
	9
	9
	10
	4
	0
	10
	9
	9
	10
	9
	1
	4
	10
	0
	10
	9
	10
	0
	6
	9
	5
	9
	6
	0
	9
	10
	0
	1
	9
	1
	9
	0
	9
	6
	0
	5
	9
	9
	0
	1
	9
	10
	4
	4
	9
	4
	1
	0
	4
	9
	9
	9
	4
	4
	9
	4
	4
	9
	4
	4
	1
	4
	1
	9
	1
	9
	9
	9
	1
	4
	9
	9
	1
	0
	9
	10
	4
	9
	9
	9
	9
	1
	9
	0
	9
	1
	0
	10
	9
	9
	9
	9
	9
	1
	9
	1
	4
	1
	0
	1
	9
	1
	4
	1
	9
	1
	9
	9
	4
	1
	9
	1
	0
	1
	9
	1
	9
	5
	9
	10
	4
	10
