results/real/sos1/jan_43_300.out
Version identifier: 22.1.0.0 | 2022-03-09 | 1a383f8ce
CPXPARAM_Threads                                 1
CPXPARAM_MIP_Strategy_VariableSelect             3
CPXPARAM_TimeLimit                               599.99993172400002
1 of 1 MIP starts provided solutions.
MIP start 'm1' defined initial solution with objective 166.0000.
Tried aggregator 1 time.
MIP Presolve eliminated 315 rows and 1200 columns.
MIP Presolve modified 41 coefficients.
Reduced MIP has 1798 rows, 2700 columns, and 65081 nonzeros.
Reduced MIP has 2700 binaries, 0 generals, 0 SOSs, and 0 indicators.
Presolve time = 0.08 sec. (110.28 ticks)
Probing time = 0.01 sec. (11.54 ticks)
Tried aggregator 1 time.
Detecting symmetries...
MIP Presolve modified 9 coefficients.
Reduced MIP has 1798 rows, 2700 columns, and 65210 nonzeros.
Reduced MIP has 2700 binaries, 0 generals, 0 SOSs, and 0 indicators.
Presolve time = 0.07 sec. (98.63 ticks)
Probing time = 0.01 sec. (11.55 ticks)
Clique table members: 1196.
MIP emphasis: balance optimality and feasibility.
MIP search method: dynamic search.
Parallel mode: none, using 1 thread.
Root relaxation solution time = 0.02 sec. (20.75 ticks)

        Nodes                                         Cuts/
   Node  Left     Objective  IInf  Best Integer    Best Bound    ItCnt     Gap

*     0+    0                          166.0000    45150.0000              --- 
*     0     0      integral     0      300.0000      300.0000      414    0.00%
Elapsed time = 0.24 sec. (293.40 ticks, tree = 0.00 MB, solutions = 2)

Root node processing (before b&c):
  Real time             =    0.24 sec. (293.55 ticks)
Sequential b&c:
  Real time             =    0.00 sec. (0.00 ticks)
                          ------------
Total (root+branch&cut) =    0.24 sec. (293.55 ticks)
Primal:	300
Dual:	300
Status:	Optimal
Time:	0.27
Sequence:
	4
	6
	0
	4
	9
	10
	9
	10
	9
	10
	0
	10
	4
	9
	10
	9
	4
	10
	0
	10
	4
	10
	9
	6
	0
	4
	4
	0
	4
	1
	4
	6
	9
	4
	9
	6
	4
	9
	10
	9
	10
	9
	4
	5
	0
	4
	1
	9
	10
	4
	4
	9
	10
	9
	10
	4
	4
	10
	9
	9
	9
	4
	4
	9
	9
	1
	4
	4
	1
	4
	4
	1
	4
	4
	9
	4
	4
	1
	4
	0
	4
	4
	1
	0
	4
	4
	0
	4
	4
	9
	0
	4
	4
	0
	4
	1
	4
	1
	0
	4
	4
	10
	4
	4
	0
	4
	4
	9
	0
	4
	1
	4
	4
	0
	4
	1
	4
	1
	4
	1
	4
	4
	1
	4
	4
	9
	4
	1
	4
	1
	0
	1
	4
	4
	1
	4
	1
	4
	1
	4
	1
	9
	1
	4
	1
	4
	4
	1
	4
	4
	1
	4
	1
	9
	9
	10
	9
	9
	9
	9
	9
	9
	4
	4
	9
	9
	0
	9
	1
	4
	9
	1
	9
	10
	9
	0
	9
	1
	0
	9
	4
	5
	0
	1
	9
	1
	9
	0
	5
	9
	6
	0
	5
	9
	5
	4
	9
	10
	0
	9
	9
	10
	4
	10
	0
	10
	9
	1
	4
	0
	9
	5
	0
	1
	9
	4
	0
	9
	9
	9
	1
	4
	9
	9
	4
	9
	9
	9
	0
	4
	9
	9
	10
	9
	4
	4
	10
	4
	4
	10
	9
	9
	0
	9
	4
	9
	1
	9
	9
	9
	1
	9
	9
	9
	9
	1
	4
	9
	9
	1
	4
	9
	4
	4
	9
	0
	9
	9
	4
	10
	9
	9
	5
	9
	9
	9
	9
	9
	9
	9
	0
	9
	9
	1
	9
	4
	1
	4
	9
	10
	0
	9
	9
	6
	9
	5
	8
	9
	4
	1
